c description: Random 3-CNF over 13 variables and 52 clauses
p cnf 13 52
-4 -7 11 0
4 5 6 0
-1 5 9 0
-5 -10 -12 0
-9 -11 -13 0
5 -7 -8 0
-3 4 6 0
3 -7 -11 0
-4 9 11 0
-3 -9 11 0
-2 6 12 0
-2 -10 13 0
1 7 -13 0
-3 5 -9 0
9 -11 -12 0
-4 -9 13 0
6 -10 -13 0
5 7 13 0
1 6 8 0
-2 4 -8 0
6 -8 -10 0
1 -7 -13 0
3 -4 13 0
2 3 -8 0
6 -7 8 0
-1 -7 -10 0
-5 8 -11 0
-3 10 13 0
2 4 -5 0
-1 -11 13 0
2 7 -12 0
-5 -8 -9 0
-5 9 -12 0
2 -7 -8 0
3 -7 8 0
-1 -5 12 0
-5 -6 11 0
-2 -7 13 0
4 7 9 0
-3 -6 -13 0
4 -7 9 0
1 -2 12 0
7 10 12 0
-1 -4 -11 0
-9 11 -13 0
6 -8 9 0
2 5 7 0
-5 -7 -11 0
10 -12 -13 0
3 4 -9 0
2 -9 -11 0
6 7 9 0